NAME : single
TYPE : ATSP
DIMENSION : 8
EDGE_WEIGHT_TYPE : EXPLICIT
EDGE_WEIGHT_FORMAT : FULL_MATRIX
EDGE_WEIGHT_SECTION
0 1918 1289 1426 5635 6978 9023 9676 
199616 0 3744 3453 3764 5106 7151 7805 
199742 3744 0 403 7225 8568 10613 11266 
199714 3453 403 0 7169 8512 10557 11210 
198872 3764 7225 7169 0 1408 4869 5593 
198604 5106 8568 8512 1408 0 4736 5461 
198195 7151 10613 10557 4869 4736 0 768 
198064 7805 11266 11210 5593 5461 768 0 
EOF